c description: Random 3-CNF over 20 variables and 85 clauses
c generator: CNFgen (0.9.2)
c copyright: (C) 2012-2022 Massimo Lauria <massimo.lauria@uniroma1.it>
c url: https://massimolauria.net/cnfgen
c command line: cnfgen --output CNF_4.28/20_bit_85_444.cnf randkcnf 3 20 85
c
p cnf 20 85
5 12 20 0
-1 10 15 0
-2 -14 -16 0
-3 11 13 0
-2 -7 -8 0
11 -13 -16 0
11 -14 18 0
-9 10 19 0
-2 -9 17 0
3 6 -10 0
1 -11 -17 0
-4 -7 18 0
10 -12 15 0
6 -16 20 0
4 -9 -17 0
5 -16 -19 0
-1 -13 -14 0
7 -8 15 0
6 -11 16 0
3 -13 19 0
10 13 17 0
-5 -9 13 0
-2 3 12 0
4 6 18 0
-3 -4 -13 0
1 7 19 0
3 -17 20 0
1 -2 -13 0
-8 14 17 0
-1 -15 16 0
-1 8 -10 0
9 -12 14 0
2 -3 15 0
-8 12 18 0
-2 7 -8 0
14 -19 20 0
3 8 10 0
-3 -4 13 0
-11 -12 20 0
-9 -12 19 0
2 3 15 0
2 14 -18 0
-4 11 -16 0
3 5 -8 0
13 -15 19 0
13 17 -19 0
5 -16 -20 0
-10 11 -14 0
2 -3 -12 0
2 5 -18 0
-10 -16 -20 0
2 -12 -20 0
15 -17 -19 0
3 14 -16 0
1 -3 -17 0
-1 -6 -19 0
6 15 -17 0
-11 -15 18 0
-3 12 14 0
4 -16 20 0
-1 8 -17 0
7 -13 -14 0
-6 -15 19 0
6 9 18 0
4 -5 -13 0
2 9 16 0
2 -9 -10 0
5 8 18 0
-7 -17 -19 0
10 -13 17 0
-9 -15 20 0
10 -12 -14 0
2 6 -14 0
-4 -15 18 0
3 4 -15 0
4 -6 -14 0
3 15 17 0
11 18 19 0
-4 -8 10 0
-4 9 11 0
3 -5 -16 0
2 10 -17 0
-13 15 18 0
-7 11 -15 0
3 -5 -6 0
